
(set-logic HORN)
(define-fun zero_86 () Int 0)
(define-fun succ_84 ((x Int)) Int (+ x 1))
(declare-datatypes ((Sign_4 0)) (((Pos_2) (Neg_3))))
(declare-fun diseqSign_2 (Sign_4 Sign_4) Bool)
(declare-fun isPos_2 (Sign_4) Bool)
(declare-fun isNeg_2 (Sign_4) Bool)
(assert (isPos_2 Pos_2))
(assert (isNeg_2 Neg_3))
(assert (diseqSign_2 Pos_2 Neg_3))
(assert (diseqSign_2 Neg_3 Pos_2))
(declare-fun diseqInt (Int Int) Bool)
(declare-fun p_239 (Int Int) Bool)
(declare-fun iszero_84 (Int) Bool)
(declare-fun issucc_84 (Int) Bool)
(assert (forall ((x_34773 Int))
	(p_239 x_34773 (succ_84 x_34773))))
(assert (iszero_84 zero_86))
(assert (forall ((x_34775 Int))
	(issucc_84 (succ_84 x_34775))))
(assert (forall ((x_34776 Int))
	(diseqInt zero_86 (succ_84 x_34776))))
(assert (forall ((x_34777 Int))
	(diseqInt (succ_84 x_34777) zero_86)))
(assert (forall ((x_34778 Int) (x_34779 Int))
	(=> (diseqInt x_34778 x_34779) (diseqInt (succ_84 x_34778) (succ_84 x_34779)))))
(declare-datatypes ((Integer_5 0)) (((P_238 (projP_10 Int)) (N_76 (projN_10 Int)))))
(declare-fun diseqInteger_5 (Integer_5 Integer_5) Bool)
(declare-fun projP_11 (Int Integer_5) Bool)
(declare-fun projN_11 (Int Integer_5) Bool)
(declare-fun isP_7 (Integer_5) Bool)
(declare-fun isN_5 (Integer_5) Bool)
(assert (forall ((x_34780 Int))
	(projP_11 x_34780 (P_238 x_34780))))
(assert (forall ((x_34782 Int))
	(projN_11 x_34782 (N_76 x_34782))))
(assert (forall ((x_34784 Int))
	(isP_7 (P_238 x_34784))))
(assert (forall ((x_34785 Int))
	(isN_5 (N_76 x_34785))))
(assert (forall ((x_34786 Int) (x_34787 Int))
	(diseqInteger_5 (P_238 x_34786) (N_76 x_34787))))
(assert (forall ((x_34788 Int) (x_34789 Int))
	(diseqInteger_5 (N_76 x_34788) (P_238 x_34789))))
(assert (forall ((x_34790 Int) (x_34791 Int))
	(=> (diseqInt x_34790 x_34791) (diseqInteger_5 (P_238 x_34790) (P_238 x_34791)))))
(assert (forall ((x_34792 Int) (x_34793 Int))
	(=> (diseqInt x_34792 x_34793) (diseqInteger_5 (N_76 x_34792) (N_76 x_34793)))))
(declare-fun toInteger_2 (Integer_5 Sign_4 Int) Bool)
(assert (forall ((z_1282 Int))
	(toInteger_2 (N_76 z_1282) Neg_3 (succ_84 z_1282))))
(assert (toInteger_2 (P_238 zero_86) Neg_3 zero_86))
(assert (forall ((y_1383 Int))
	(toInteger_2 (P_238 y_1383) Pos_2 y_1383)))
(declare-fun sign_5 (Sign_4 Integer_5) Bool)
(assert (forall ((z_1283 Int))
	(sign_5 Neg_3 (N_76 z_1283))))
(assert (forall ((y_1384 Int))
	(sign_5 Pos_2 (P_238 y_1384))))
(declare-fun plus_78 (Int Int Int) Bool)
(assert (forall ((x_34716 Int) (z_1284 Int) (y_1385 Int))
	(=> (plus_78 x_34716 z_1284 y_1385) (plus_78 (succ_84 x_34716) (succ_84 z_1284) y_1385))))
(assert (forall ((x_34717 Int))
	(plus_78 x_34717 zero_86 x_34717)))
(declare-fun times_18 (Int Int Int) Bool)
(assert (forall ((x_34718 Int) (x_34719 Int) (z_1285 Int) (y_1386 Int))
	(=> (and (times_18 x_34719 z_1285 y_1386) (plus_78 x_34718 y_1386 x_34719)) (times_18 x_34718 (succ_84 z_1285) y_1386))))
(assert (forall ((y_1386 Int))
	(times_18 zero_86 zero_86 y_1386)))
(declare-fun opposite_2 (Sign_4 Sign_4) Bool)
(assert (opposite_2 Pos_2 Neg_3))
(assert (opposite_2 Neg_3 Pos_2))
(declare-fun timesSign_2 (Sign_4 Sign_4 Sign_4) Bool)
(assert (forall ((x_34724 Sign_4) (y_1387 Sign_4))
	(=> (opposite_2 x_34724 y_1387) (timesSign_2 x_34724 Neg_3 y_1387))))
(assert (forall ((x_34726 Sign_4))
	(timesSign_2 x_34726 Pos_2 x_34726)))
(declare-fun one_9 (Integer_5) Bool)
(assert (one_9 (P_238 (succ_84 zero_86))))
(declare-fun absVal_2 (Int Integer_5) Bool)
(assert (forall ((x_34728 Int) (m_29 Int))
	(=> (plus_78 x_34728 (succ_84 zero_86) m_29) (absVal_2 x_34728 (N_76 m_29)))))
(assert (forall ((n_77 Int))
	(absVal_2 n_77 (P_238 n_77))))
(declare-fun times_19 (Integer_5 Integer_5 Integer_5) Bool)
(assert (forall ((x_34731 Integer_5) (x_34732 Sign_4) (x_34733 Sign_4) (x_34734 Sign_4) (x_34735 Int) (x_34736 Int) (x_34737 Int) (x_34696 Integer_5) (y_1388 Integer_5))
	(=> (and (sign_5 x_34732 x_34696) (sign_5 x_34733 y_1388) (timesSign_2 x_34734 x_34732 x_34733) (absVal_2 x_34735 x_34696) (absVal_2 x_34736 y_1388) (times_18 x_34737 x_34735 x_34736) (toInteger_2 x_34731 x_34734 x_34737)) (times_19 x_34731 x_34696 y_1388))))
(assert (forall ((x_34739 Integer_5) (x_34740 Integer_5) (x_34697 Integer_5))
	(=> (and true (diseqInteger_5 x_34697 x_34740) (one_9 x_34739) (times_19 x_34740 x_34697 x_34739)) false)))
(assert (forall ((x_34741 Int) (x_34742 Int) (x_34743 Int) (x_34744 Int) (x_34698 Int) (y_1389 Int) (z_1286 Int))
	(=> (and true (diseqInt x_34742 x_34744) (times_18 x_34741 y_1389 z_1286) (times_18 x_34742 x_34698 x_34741) (times_18 x_34743 x_34698 y_1389) (times_18 x_34744 x_34743 z_1286)) false)))
(assert (forall ((x_34745 Int) (x_34746 Int) (x_34747 Int) (x_34748 Int) (x_34699 Int) (y_1390 Int) (z_1287 Int))
	(=> (and true (diseqInt x_34746 x_34748) (plus_78 x_34745 y_1390 z_1287) (plus_78 x_34746 x_34699 x_34745) (plus_78 x_34747 x_34699 y_1390) (plus_78 x_34748 x_34747 z_1287)) false)))
(assert (forall ((x_34749 Int) (x_34750 Int) (x_34700 Int) (y_1391 Int))
	(=> (and true (diseqInt x_34749 x_34750) (times_18 x_34749 x_34700 y_1391) (times_18 x_34750 y_1391 x_34700)) false)))
(assert (forall ((x_34751 Int) (x_34752 Int) (x_34701 Int) (y_1392 Int))
	(=> (and true (diseqInt x_34751 x_34752) (plus_78 x_34751 x_34701 y_1392) (plus_78 x_34752 y_1392 x_34701)) false)))
(assert (forall ((x_34753 Int) (x_34754 Int) (x_34755 Int) (x_34756 Int) (x_34757 Int) (x_34702 Int) (y_1393 Int) (z_1288 Int))
	(=> (and true (diseqInt x_34754 x_34757) (plus_78 x_34753 y_1393 z_1288) (times_18 x_34754 x_34702 x_34753) (times_18 x_34755 x_34702 y_1393) (times_18 x_34756 x_34702 z_1288) (plus_78 x_34757 x_34755 x_34756)) false)))
(assert (forall ((x_34758 Int) (x_34759 Int) (x_34760 Int) (x_34761 Int) (x_34762 Int) (x_34703 Int) (y_1394 Int) (z_1289 Int))
	(=> (and true (diseqInt x_34759 x_34762) (plus_78 x_34758 x_34703 y_1394) (times_18 x_34759 x_34758 z_1289) (times_18 x_34760 x_34703 z_1289) (times_18 x_34761 y_1394 z_1289) (plus_78 x_34762 x_34760 x_34761)) false)))
(assert (forall ((x_34763 Int) (x_34704 Int))
	(=> (and true (diseqInt x_34763 x_34704) (times_18 x_34763 x_34704 (succ_84 zero_86))) false)))
(assert (forall ((x_34764 Int) (x_34705 Int))
	(=> (and true (diseqInt x_34764 x_34705) (times_18 x_34764 (succ_84 zero_86) x_34705)) false)))
(assert (forall ((x_34765 Int) (x_34706 Int))
	(=> (and true (diseqInt x_34765 x_34706) (plus_78 x_34765 x_34706 zero_86)) false)))
(assert (forall ((x_34766 Int) (x_34707 Int))
	(=> (and true (diseqInt x_34766 x_34707) (plus_78 x_34766 zero_86 x_34707)) false)))
(assert (forall ((x_34767 Int) (x_34708 Int))
	(=> (and true (diseqInt x_34767 zero_86) (times_18 x_34767 x_34708 zero_86)) false)))
(assert (forall ((x_34768 Int) (x_34709 Int))
	(=> (and true (diseqInt x_34768 zero_86) (times_18 x_34768 zero_86 x_34709)) false)))
(check-sat)
